NAME : morphed22-5-25
COMMENT : Generated using the function morphInstances from the R-package netgen (Bossek,2015) - Number of clusters: 5 Alpha: 0.5
TYPE : TSP
DIMENSION : 22
EDGE_WEIGHT_TYPE : EUC_2D
NODE_COORD_SECTION
1 44.8280179661 13.5936567918
2 65.8643455816 16.6282077002
3 12.310499393 36.826652883
4 87.5153040959 28.4592877548
5 9.9356748161 30.1882245055
6 90.8795400113 47.5678257886
7 60.2334145259 71.0977131317
8 30.3291925764 45.1735858448
9 13.8739042032 79.3204127488
10 22.7672861546 43.0538524593
11 23.9297707455 37.2916646869
12 41.6843710964 15.6762636734
13 78.4837299654 85.5230555014
14 41.4307982515 56.8231728699
15 65.3051981324 94.5421842535
16 13.7605700619 41.9407745085
17 52.7535829215 17.7209611083
18 80.769450815 17.5535003674
19 52.2286066606 78.3470112318
20 77.7455598541 25.3700375487
21 4.5797513811 56.4314421828
22 35.6946687287 75.3457506043
EOF
